D = 5;
T = 3;
N1 = 1;
N2 = 1;
N3 = 1;
MaxDT = 5;
MaxDL = 0;
MinDT = 5;
A = 1;
afines = [|true,true,true
          |true,true,true
          |true,true,true
          |];
          
R = {1,2,3};

vacaciones = [| true, true, true, 
              | true, true, true, 
              | true, true, true, 
              | true, true, true, 
              | true, true, true, 
              |];

